\ LP format - for model browsing. Use MPS format to capture full model detail.
Minimize
  - 10 x1 - 9 x2 + 6800 Constant
Subject To
 c1: x1 + 0.66666666666667 x2 <= 708
 c2: 0.1 x1 + 0.25 x2 <= 135
Bounds
 Constant = 1
End
